p cnf 84 1463
-15 -16 0
-15 -17 0
-15 -18 0
-15 -19 0
-15 -20 0
-15 -21 0
-15 -22 0
-15 -23 0
-15 -24 0
-15 -25 0
-15 -26 0
-15 -27 0
-15 -28 0
-16 -17 0
-16 -18 0
-16 -19 0
-16 -20 0
-16 -21 0
-16 -22 0
-16 -23 0
-16 -24 0
-16 -25 0
-16 -26 0
-16 -27 0
-16 -28 0
-17 -18 0
-17 -19 0
-17 -20 0
-17 -21 0
-17 -22 0
-17 -23 0
-17 -24 0
-17 -25 0
-17 -26 0
-17 -27 0
-17 -28 0
-18 -19 0
-18 -20 0
-18 -21 0
-18 -22 0
-18 -23 0
-18 -24 0
-18 -25 0
-18 -26 0
-18 -27 0
-18 -28 0
-19 -20 0
-19 -21 0
-19 -22 0
-19 -23 0
-19 -24 0
-19 -25 0
-19 -26 0
-19 -27 0
-19 -28 0
-20 -21 0
-20 -22 0
-20 -23 0
-20 -24 0
-20 -25 0
-20 -26 0
-20 -27 0
-20 -28 0
-21 -22 0
-21 -23 0
-21 -24 0
-21 -25 0
-21 -26 0
-21 -27 0
-21 -28 0
-22 -23 0
-22 -24 0
-22 -25 0
-22 -26 0
-22 -27 0
-22 -28 0
-23 -24 0
-23 -25 0
-23 -26 0
-23 -27 0
-23 -28 0
-24 -25 0
-24 -26 0
-24 -27 0
-24 -28 0
-25 -26 0
-25 -27 0
-25 -28 0
-26 -27 0
-26 -28 0
-27 -28 0
-29 -30 0
-29 -31 0
-29 -32 0
-29 -33 0
-29 -34 0
-29 -35 0
-29 -36 0
-29 -37 0
-29 -38 0
-29 -39 0
-29 -40 0
-29 -41 0
-29 -42 0
-30 -31 0
-30 -32 0
-30 -33 0
-30 -34 0
-30 -35 0
-30 -36 0
-30 -37 0
-30 -38 0
-30 -39 0
-30 -40 0
-30 -41 0
-30 -42 0
-31 -32 0
-31 -33 0
-31 -34 0
-31 -35 0
-31 -36 0
-31 -37 0
-31 -38 0
-31 -39 0
-31 -40 0
-31 -41 0
-31 -42 0
-32 -33 0
-32 -34 0
-32 -35 0
-32 -36 0
-32 -37 0
-32 -38 0
-32 -39 0
-32 -40 0
-32 -41 0
-32 -42 0
-33 -34 0
-33 -35 0
-33 -36 0
-33 -37 0
-33 -38 0
-33 -39 0
-33 -40 0
-33 -41 0
-33 -42 0
-34 -35 0
-34 -36 0
-34 -37 0
-34 -38 0
-34 -39 0
-34 -40 0
-34 -41 0
-34 -42 0
-35 -36 0
-35 -37 0
-35 -38 0
-35 -39 0
-35 -40 0
-35 -41 0
-35 -42 0
-36 -37 0
-36 -38 0
-36 -39 0
-36 -40 0
-36 -41 0
-36 -42 0
-37 -38 0
-37 -39 0
-37 -40 0
-37 -41 0
-37 -42 0
-38 -39 0
-38 -40 0
-38 -41 0
-38 -42 0
-39 -40 0
-39 -41 0
-39 -42 0
-40 -41 0
-40 -42 0
-41 -42 0
-43 -44 0
-43 -45 0
-43 -46 0
-43 -47 0
-43 -48 0
-43 -49 0
-43 -50 0
-43 -51 0
-43 -52 0
-43 -53 0
-43 -54 0
-43 -55 0
-43 -56 0
-44 -45 0
-44 -46 0
-44 -47 0
-44 -48 0
-44 -49 0
-44 -50 0
-44 -51 0
-44 -52 0
-44 -53 0
-44 -54 0
-44 -55 0
-44 -56 0
-45 -46 0
-45 -47 0
-45 -48 0
-45 -49 0
-45 -50 0
-45 -51 0
-45 -52 0
-45 -53 0
-45 -54 0
-45 -55 0
-45 -56 0
-46 -47 0
-46 -48 0
-46 -49 0
-46 -50 0
-46 -51 0
-46 -52 0
-46 -53 0
-46 -54 0
-46 -55 0
-46 -56 0
-47 -48 0
-47 -49 0
-47 -50 0
-47 -51 0
-47 -52 0
-47 -53 0
-47 -54 0
-47 -55 0
-47 -56 0
-48 -49 0
-48 -50 0
-48 -51 0
-48 -52 0
-48 -53 0
-48 -54 0
-48 -55 0
-48 -56 0
-49 -50 0
-49 -51 0
-49 -52 0
-49 -53 0
-49 -54 0
-49 -55 0
-49 -56 0
-50 -51 0
-50 -52 0
-50 -53 0
-50 -54 0
-50 -55 0
-50 -56 0
-51 -52 0
-51 -53 0
-51 -54 0
-51 -55 0
-51 -56 0
-52 -53 0
-52 -54 0
-52 -55 0
-52 -56 0
-53 -54 0
-53 -55 0
-53 -56 0
-54 -55 0
-54 -56 0
-55 -56 0
-57 -58 0
-57 -59 0
-57 -60 0
-57 -61 0
-57 -62 0
-57 -63 0
-57 -64 0
-57 -65 0
-57 -66 0
-57 -67 0
-57 -68 0
-57 -69 0
-57 -70 0
-58 -59 0
-58 -60 0
-58 -61 0
-58 -62 0
-58 -63 0
-58 -64 0
-58 -65 0
-58 -66 0
-58 -67 0
-58 -68 0
-58 -69 0
-58 -70 0
-59 -60 0
-59 -61 0
-59 -62 0
-59 -63 0
-59 -64 0
-59 -65 0
-59 -66 0
-59 -67 0
-59 -68 0
-59 -69 0
-59 -70 0
-60 -61 0
-60 -62 0
-60 -63 0
-60 -64 0
-60 -65 0
-60 -66 0
-60 -67 0
-60 -68 0
-60 -69 0
-60 -70 0
-61 -62 0
-61 -63 0
-61 -64 0
-61 -65 0
-61 -66 0
-61 -67 0
-61 -68 0
-61 -69 0
-61 -70 0
-62 -63 0
-62 -64 0
-62 -65 0
-62 -66 0
-62 -67 0
-62 -68 0
-62 -69 0
-62 -70 0
-63 -64 0
-63 -65 0
-63 -66 0
-63 -67 0
-63 -68 0
-63 -69 0
-63 -70 0
-64 -65 0
-64 -66 0
-64 -67 0
-64 -68 0
-64 -69 0
-64 -70 0
-65 -66 0
-65 -67 0
-65 -68 0
-65 -69 0
-65 -70 0
-66 -67 0
-66 -68 0
-66 -69 0
-66 -70 0
-67 -68 0
-67 -69 0
-67 -70 0
-68 -69 0
-68 -70 0
-69 -70 0
-71 -72 0
-71 -73 0
-71 -74 0
-71 -75 0
-71 -76 0
-71 -77 0
-71 -78 0
-71 -79 0
-71 -80 0
-71 -81 0
-71 -82 0
-71 -83 0
-71 -84 0
-72 -73 0
-72 -74 0
-72 -75 0
-72 -76 0
-72 -77 0
-72 -78 0
-72 -79 0
-72 -80 0
-72 -81 0
-72 -82 0
-72 -83 0
-72 -84 0
-73 -74 0
-73 -75 0
-73 -76 0
-73 -77 0
-73 -78 0
-73 -79 0
-73 -80 0
-73 -81 0
-73 -82 0
-73 -83 0
-73 -84 0
-74 -75 0
-74 -76 0
-74 -77 0
-74 -78 0
-74 -79 0
-74 -80 0
-74 -81 0
-74 -82 0
-74 -83 0
-74 -84 0
-75 -76 0
-75 -77 0
-75 -78 0
-75 -79 0
-75 -80 0
-75 -81 0
-75 -82 0
-75 -83 0
-75 -84 0
-76 -77 0
-76 -78 0
-76 -79 0
-76 -80 0
-76 -81 0
-76 -82 0
-76 -83 0
-76 -84 0
-77 -78 0
-77 -79 0
-77 -80 0
-77 -81 0
-77 -82 0
-77 -83 0
-77 -84 0
-78 -79 0
-78 -80 0
-78 -81 0
-78 -82 0
-78 -83 0
-78 -84 0
-79 -80 0
-79 -81 0
-79 -82 0
-79 -83 0
-79 -84 0
-80 -81 0
-80 -82 0
-80 -83 0
-80 -84 0
-81 -82 0
-81 -83 0
-81 -84 0
-82 -83 0
-82 -84 0
-83 -84 0
-16 -29 0
-17 -29 0
-18 -29 0
-19 -29 0
-20 -29 0
-21 -29 0
-22 -29 0
-23 -29 0
-24 -29 0
-25 -29 0
-26 -29 0
-27 -29 0
-28 -29 0
-17 -30 0
-18 -30 0
-19 -30 0
-20 -30 0
-21 -30 0
-22 -30 0
-23 -30 0
-24 -30 0
-25 -30 0
-26 -30 0
-27 -30 0
-28 -30 0
-18 -31 0
-19 -31 0
-20 -31 0
-21 -31 0
-22 -31 0
-23 -31 0
-24 -31 0
-25 -31 0
-26 -31 0
-27 -31 0
-28 -31 0
-19 -32 0
-20 -32 0
-21 -32 0
-22 -32 0
-23 -32 0
-24 -32 0
-25 -32 0
-26 -32 0
-27 -32 0
-28 -32 0
-20 -33 0
-21 -33 0
-22 -33 0
-23 -33 0
-24 -33 0
-25 -33 0
-26 -33 0
-27 -33 0
-28 -33 0
-21 -34 0
-22 -34 0
-23 -34 0
-24 -34 0
-25 -34 0
-26 -34 0
-27 -34 0
-28 -34 0
-22 -35 0
-23 -35 0
-24 -35 0
-25 -35 0
-26 -35 0
-27 -35 0
-28 -35 0
-23 -36 0
-24 -36 0
-25 -36 0
-26 -36 0
-27 -36 0
-28 -36 0
-24 -37 0
-25 -37 0
-26 -37 0
-27 -37 0
-28 -37 0
-25 -38 0
-26 -38 0
-27 -38 0
-28 -38 0
-26 -39 0
-27 -39 0
-28 -39 0
-27 -40 0
-28 -40 0
-28 -41 0
-16 -43 0
-17 -43 0
-18 -43 0
-19 -43 0
-20 -43 0
-21 -43 0
-22 -43 0
-23 -43 0
-24 -43 0
-25 -43 0
-26 -43 0
-27 -43 0
-28 -43 0
-17 -44 0
-18 -44 0
-19 -44 0
-20 -44 0
-21 -44 0
-22 -44 0
-23 -44 0
-24 -44 0
-25 -44 0
-26 -44 0
-27 -44 0
-28 -44 0
-18 -45 0
-19 -45 0
-20 -45 0
-21 -45 0
-22 -45 0
-23 -45 0
-24 -45 0
-25 -45 0
-26 -45 0
-27 -45 0
-28 -45 0
-19 -46 0
-20 -46 0
-21 -46 0
-22 -46 0
-23 -46 0
-24 -46 0
-25 -46 0
-26 -46 0
-27 -46 0
-28 -46 0
-20 -47 0
-21 -47 0
-22 -47 0
-23 -47 0
-24 -47 0
-25 -47 0
-26 -47 0
-27 -47 0
-28 -47 0
-21 -48 0
-22 -48 0
-23 -48 0
-24 -48 0
-25 -48 0
-26 -48 0
-27 -48 0
-28 -48 0
-22 -49 0
-23 -49 0
-24 -49 0
-25 -49 0
-26 -49 0
-27 -49 0
-28 -49 0
-23 -50 0
-24 -50 0
-25 -50 0
-26 -50 0
-27 -50 0
-28 -50 0
-24 -51 0
-25 -51 0
-26 -51 0
-27 -51 0
-28 -51 0
-25 -52 0
-26 -52 0
-27 -52 0
-28 -52 0
-26 -53 0
-27 -53 0
-28 -53 0
-27 -54 0
-28 -54 0
-28 -55 0
-16 -57 0
-17 -57 0
-18 -57 0
-19 -57 0
-20 -57 0
-21 -57 0
-22 -57 0
-23 -57 0
-24 -57 0
-25 -57 0
-26 -57 0
-27 -57 0
-28 -57 0
-17 -58 0
-18 -58 0
-19 -58 0
-20 -58 0
-21 -58 0
-22 -58 0
-23 -58 0
-24 -58 0
-25 -58 0
-26 -58 0
-27 -58 0
-28 -58 0
-18 -59 0
-19 -59 0
-20 -59 0
-21 -59 0
-22 -59 0
-23 -59 0
-24 -59 0
-25 -59 0
-26 -59 0
-27 -59 0
-28 -59 0
-19 -60 0
-20 -60 0
-21 -60 0
-22 -60 0
-23 -60 0
-24 -60 0
-25 -60 0
-26 -60 0
-27 -60 0
-28 -60 0
-20 -61 0
-21 -61 0
-22 -61 0
-23 -61 0
-24 -61 0
-25 -61 0
-26 -61 0
-27 -61 0
-28 -61 0
-21 -62 0
-22 -62 0
-23 -62 0
-24 -62 0
-25 -62 0
-26 -62 0
-27 -62 0
-28 -62 0
-22 -63 0
-23 -63 0
-24 -63 0
-25 -63 0
-26 -63 0
-27 -63 0
-28 -63 0
-23 -64 0
-24 -64 0
-25 -64 0
-26 -64 0
-27 -64 0
-28 -64 0
-24 -65 0
-25 -65 0
-26 -65 0
-27 -65 0
-28 -65 0
-25 -66 0
-26 -66 0
-27 -66 0
-28 -66 0
-26 -67 0
-27 -67 0
-28 -67 0
-27 -68 0
-28 -68 0
-28 -69 0
-16 -71 0
-17 -71 0
-18 -71 0
-19 -71 0
-20 -71 0
-21 -71 0
-22 -71 0
-23 -71 0
-24 -71 0
-25 -71 0
-26 -71 0
-27 -71 0
-28 -71 0
-17 -72 0
-18 -72 0
-19 -72 0
-20 -72 0
-21 -72 0
-22 -72 0
-23 -72 0
-24 -72 0
-25 -72 0
-26 -72 0
-27 -72 0
-28 -72 0
-18 -73 0
-19 -73 0
-20 -73 0
-21 -73 0
-22 -73 0
-23 -73 0
-24 -73 0
-25 -73 0
-26 -73 0
-27 -73 0
-28 -73 0
-19 -74 0
-20 -74 0
-21 -74 0
-22 -74 0
-23 -74 0
-24 -74 0
-25 -74 0
-26 -74 0
-27 -74 0
-28 -74 0
-20 -75 0
-21 -75 0
-22 -75 0
-23 -75 0
-24 -75 0
-25 -75 0
-26 -75 0
-27 -75 0
-28 -75 0
-21 -76 0
-22 -76 0
-23 -76 0
-24 -76 0
-25 -76 0
-26 -76 0
-27 -76 0
-28 -76 0
-22 -77 0
-23 -77 0
-24 -77 0
-25 -77 0
-26 -77 0
-27 -77 0
-28 -77 0
-23 -78 0
-24 -78 0
-25 -78 0
-26 -78 0
-27 -78 0
-28 -78 0
-24 -79 0
-25 -79 0
-26 -79 0
-27 -79 0
-28 -79 0
-25 -80 0
-26 -80 0
-27 -80 0
-28 -80 0
-26 -81 0
-27 -81 0
-28 -81 0
-27 -82 0
-28 -82 0
-28 -83 0
-30 -43 0
-31 -43 0
-32 -43 0
-33 -43 0
-34 -43 0
-35 -43 0
-36 -43 0
-37 -43 0
-38 -43 0
-39 -43 0
-40 -43 0
-41 -43 0
-42 -43 0
-31 -44 0
-32 -44 0
-33 -44 0
-34 -44 0
-35 -44 0
-36 -44 0
-37 -44 0
-38 -44 0
-39 -44 0
-40 -44 0
-41 -44 0
-42 -44 0
-32 -45 0
-33 -45 0
-34 -45 0
-35 -45 0
-36 -45 0
-37 -45 0
-38 -45 0
-39 -45 0
-40 -45 0
-41 -45 0
-42 -45 0
-33 -46 0
-34 -46 0
-35 -46 0
-36 -46 0
-37 -46 0
-38 -46 0
-39 -46 0
-40 -46 0
-41 -46 0
-42 -46 0
-34 -47 0
-35 -47 0
-36 -47 0
-37 -47 0
-38 -47 0
-39 -47 0
-40 -47 0
-41 -47 0
-42 -47 0
-35 -48 0
-36 -48 0
-37 -48 0
-38 -48 0
-39 -48 0
-40 -48 0
-41 -48 0
-42 -48 0
-36 -49 0
-37 -49 0
-38 -49 0
-39 -49 0
-40 -49 0
-41 -49 0
-42 -49 0
-37 -50 0
-38 -50 0
-39 -50 0
-40 -50 0
-41 -50 0
-42 -50 0
-38 -51 0
-39 -51 0
-40 -51 0
-41 -51 0
-42 -51 0
-39 -52 0
-40 -52 0
-41 -52 0
-42 -52 0
-40 -53 0
-41 -53 0
-42 -53 0
-41 -54 0
-42 -54 0
-42 -55 0
-30 -57 0
-31 -57 0
-32 -57 0
-33 -57 0
-34 -57 0
-35 -57 0
-36 -57 0
-37 -57 0
-38 -57 0
-39 -57 0
-40 -57 0
-41 -57 0
-42 -57 0
-31 -58 0
-32 -58 0
-33 -58 0
-34 -58 0
-35 -58 0
-36 -58 0
-37 -58 0
-38 -58 0
-39 -58 0
-40 -58 0
-41 -58 0
-42 -58 0
-32 -59 0
-33 -59 0
-34 -59 0
-35 -59 0
-36 -59 0
-37 -59 0
-38 -59 0
-39 -59 0
-40 -59 0
-41 -59 0
-42 -59 0
-33 -60 0
-34 -60 0
-35 -60 0
-36 -60 0
-37 -60 0
-38 -60 0
-39 -60 0
-40 -60 0
-41 -60 0
-42 -60 0
-34 -61 0
-35 -61 0
-36 -61 0
-37 -61 0
-38 -61 0
-39 -61 0
-40 -61 0
-41 -61 0
-42 -61 0
-35 -62 0
-36 -62 0
-37 -62 0
-38 -62 0
-39 -62 0
-40 -62 0
-41 -62 0
-42 -62 0
-36 -63 0
-37 -63 0
-38 -63 0
-39 -63 0
-40 -63 0
-41 -63 0
-42 -63 0
-37 -64 0
-38 -64 0
-39 -64 0
-40 -64 0
-41 -64 0
-42 -64 0
-38 -65 0
-39 -65 0
-40 -65 0
-41 -65 0
-42 -65 0
-39 -66 0
-40 -66 0
-41 -66 0
-42 -66 0
-40 -67 0
-41 -67 0
-42 -67 0
-41 -68 0
-42 -68 0
-42 -69 0
-30 -71 0
-31 -71 0
-32 -71 0
-33 -71 0
-34 -71 0
-35 -71 0
-36 -71 0
-37 -71 0
-38 -71 0
-39 -71 0
-40 -71 0
-41 -71 0
-42 -71 0
-31 -72 0
-32 -72 0
-33 -72 0
-34 -72 0
-35 -72 0
-36 -72 0
-37 -72 0
-38 -72 0
-39 -72 0
-40 -72 0
-41 -72 0
-42 -72 0
-32 -73 0
-33 -73 0
-34 -73 0
-35 -73 0
-36 -73 0
-37 -73 0
-38 -73 0
-39 -73 0
-40 -73 0
-41 -73 0
-42 -73 0
-33 -74 0
-34 -74 0
-35 -74 0
-36 -74 0
-37 -74 0
-38 -74 0
-39 -74 0
-40 -74 0
-41 -74 0
-42 -74 0
-34 -75 0
-35 -75 0
-36 -75 0
-37 -75 0
-38 -75 0
-39 -75 0
-40 -75 0
-41 -75 0
-42 -75 0
-35 -76 0
-36 -76 0
-37 -76 0
-38 -76 0
-39 -76 0
-40 -76 0
-41 -76 0
-42 -76 0
-36 -77 0
-37 -77 0
-38 -77 0
-39 -77 0
-40 -77 0
-41 -77 0
-42 -77 0
-37 -78 0
-38 -78 0
-39 -78 0
-40 -78 0
-41 -78 0
-42 -78 0
-38 -79 0
-39 -79 0
-40 -79 0
-41 -79 0
-42 -79 0
-39 -80 0
-40 -80 0
-41 -80 0
-42 -80 0
-40 -81 0
-41 -81 0
-42 -81 0
-41 -82 0
-42 -82 0
-42 -83 0
-44 -57 0
-45 -57 0
-46 -57 0
-47 -57 0
-48 -57 0
-49 -57 0
-50 -57 0
-51 -57 0
-52 -57 0
-53 -57 0
-54 -57 0
-55 -57 0
-56 -57 0
-45 -58 0
-46 -58 0
-47 -58 0
-48 -58 0
-49 -58 0
-50 -58 0
-51 -58 0
-52 -58 0
-53 -58 0
-54 -58 0
-55 -58 0
-56 -58 0
-46 -59 0
-47 -59 0
-48 -59 0
-49 -59 0
-50 -59 0
-51 -59 0
-52 -59 0
-53 -59 0
-54 -59 0
-55 -59 0
-56 -59 0
-47 -60 0
-48 -60 0
-49 -60 0
-50 -60 0
-51 -60 0
-52 -60 0
-53 -60 0
-54 -60 0
-55 -60 0
-56 -60 0
-48 -61 0
-49 -61 0
-50 -61 0
-51 -61 0
-52 -61 0
-53 -61 0
-54 -61 0
-55 -61 0
-56 -61 0
-49 -62 0
-50 -62 0
-51 -62 0
-52 -62 0
-53 -62 0
-54 -62 0
-55 -62 0
-56 -62 0
-50 -63 0
-51 -63 0
-52 -63 0
-53 -63 0
-54 -63 0
-55 -63 0
-56 -63 0
-51 -64 0
-52 -64 0
-53 -64 0
-54 -64 0
-55 -64 0
-56 -64 0
-52 -65 0
-53 -65 0
-54 -65 0
-55 -65 0
-56 -65 0
-53 -66 0
-54 -66 0
-55 -66 0
-56 -66 0
-54 -67 0
-55 -67 0
-56 -67 0
-55 -68 0
-56 -68 0
-56 -69 0
-44 -71 0
-45 -71 0
-46 -71 0
-47 -71 0
-48 -71 0
-49 -71 0
-50 -71 0
-51 -71 0
-52 -71 0
-53 -71 0
-54 -71 0
-55 -71 0
-56 -71 0
-45 -72 0
-46 -72 0
-47 -72 0
-48 -72 0
-49 -72 0
-50 -72 0
-51 -72 0
-52 -72 0
-53 -72 0
-54 -72 0
-55 -72 0
-56 -72 0
-46 -73 0
-47 -73 0
-48 -73 0
-49 -73 0
-50 -73 0
-51 -73 0
-52 -73 0
-53 -73 0
-54 -73 0
-55 -73 0
-56 -73 0
-47 -74 0
-48 -74 0
-49 -74 0
-50 -74 0
-51 -74 0
-52 -74 0
-53 -74 0
-54 -74 0
-55 -74 0
-56 -74 0
-48 -75 0
-49 -75 0
-50 -75 0
-51 -75 0
-52 -75 0
-53 -75 0
-54 -75 0
-55 -75 0
-56 -75 0
-49 -76 0
-50 -76 0
-51 -76 0
-52 -76 0
-53 -76 0
-54 -76 0
-55 -76 0
-56 -76 0
-50 -77 0
-51 -77 0
-52 -77 0
-53 -77 0
-54 -77 0
-55 -77 0
-56 -77 0
-51 -78 0
-52 -78 0
-53 -78 0
-54 -78 0
-55 -78 0
-56 -78 0
-52 -79 0
-53 -79 0
-54 -79 0
-55 -79 0
-56 -79 0
-53 -80 0
-54 -80 0
-55 -80 0
-56 -80 0
-54 -81 0
-55 -81 0
-56 -81 0
-55 -82 0
-56 -82 0
-56 -83 0
-58 -71 0
-59 -71 0
-60 -71 0
-61 -71 0
-62 -71 0
-63 -71 0
-64 -71 0
-65 -71 0
-66 -71 0
-67 -71 0
-68 -71 0
-69 -71 0
-70 -71 0
-59 -72 0
-60 -72 0
-61 -72 0
-62 -72 0
-63 -72 0
-64 -72 0
-65 -72 0
-66 -72 0
-67 -72 0
-68 -72 0
-69 -72 0
-70 -72 0
-60 -73 0
-61 -73 0
-62 -73 0
-63 -73 0
-64 -73 0
-65 -73 0
-66 -73 0
-67 -73 0
-68 -73 0
-69 -73 0
-70 -73 0
-61 -74 0
-62 -74 0
-63 -74 0
-64 -74 0
-65 -74 0
-66 -74 0
-67 -74 0
-68 -74 0
-69 -74 0
-70 -74 0
-62 -75 0
-63 -75 0
-64 -75 0
-65 -75 0
-66 -75 0
-67 -75 0
-68 -75 0
-69 -75 0
-70 -75 0
-63 -76 0
-64 -76 0
-65 -76 0
-66 -76 0
-67 -76 0
-68 -76 0
-69 -76 0
-70 -76 0
-64 -77 0
-65 -77 0
-66 -77 0
-67 -77 0
-68 -77 0
-69 -77 0
-70 -77 0
-65 -78 0
-66 -78 0
-67 -78 0
-68 -78 0
-69 -78 0
-70 -78 0
-66 -79 0
-67 -79 0
-68 -79 0
-69 -79 0
-70 -79 0
-67 -80 0
-68 -80 0
-69 -80 0
-70 -80 0
-68 -81 0
-69 -81 0
-70 -81 0
-69 -82 0
-70 -82 0
-70 -83 0
-15 1 0
-16 2 0
-17 3 0
-18 4 0
-19 5 0
-20 6 0
-21 7 0
-22 8 0
-23 9 0
-24 10 0
-25 11 0
-26 12 0
-27 13 0
-28 14 0
-29 1 0
-30 2 0
-31 3 0
-32 4 0
-33 5 0
-34 6 0
-35 7 0
-36 8 0
-37 9 0
-38 10 0
-39 11 0
-40 12 0
-41 13 0
-42 14 0
-43 1 0
-44 2 0
-45 3 0
-46 4 0
-47 5 0
-48 6 0
-49 7 0
-50 8 0
-51 9 0
-52 10 0
-53 11 0
-54 12 0
-55 13 0
-56 14 0
-57 1 0
-58 2 0
-59 3 0
-60 4 0
-61 5 0
-62 6 0
-63 7 0
-64 8 0
-65 9 0
-66 10 0
-67 11 0
-68 12 0
-69 13 0
-70 14 0
-71 1 0
-72 2 0
-73 3 0
-74 4 0
-75 5 0
-76 6 0
-77 7 0
-78 8 0
-79 9 0
-80 10 0
-81 11 0
-82 12 0
-83 13 0
-84 14 0
-1 15 29 43 57 71 0
-2 16 30 44 58 72 0
-3 17 31 45 59 73 0
-4 18 32 46 60 74 0
-5 19 33 47 61 75 0
-6 20 34 48 62 76 0
-7 21 35 49 63 77 0
-8 22 36 50 64 78 0
-9 23 37 51 65 79 0
-10 24 38 52 66 80 0
-11 25 39 53 67 81 0
-12 26 40 54 68 82 0
-13 27 41 55 69 83 0
-14 28 42 56 70 84 0
1 3 7 9 0
1 7 8 11 0
1 8 14 0
1 11 0
2 3 5 7 0
2 3 10 12 0
2 4 9 12 0
2 9 10 0
3 5 0
4 12 0
6 7 9 10 12 0
6 9 0
8 13 14 0
13 14 0
